p cnf 15 40
15 14 9 0
-15 12 6 0
-15 -12 -3 0
15 12 -2 0
-15 12 1 0
15 10 -1 0
-15 9 -3 0
-15 -9 -2 0
15 -4 -3 0
-14 -12 -6 0
14 -11 6 0
14 4 3 0
-13 12 10 0
13 -12 7 0
13 11 6 0
-13 11 -6 0
-13 8 -6 0
13 -6 -2 0
-13 6 -1 0
-13 -4 2 0
13 -2 1 0
-12 11 -8 0
12 -8 -5 0
12 -6 -3 0
12 5 -2 0
-11 10 -4 0
11 7 6 0
11 -7 2 0
11 -4 2 0
11 2 -1 0
-10 -9 2 0
10 8 -6 0
-10 8 2 0
-10 8 1 0
-10 -7 -5 0
-10 -7 -3 0
10 5 4 0
9 -8 -5 0
5 3 -1 0
-4 3 1 0
